language Essence 1.3

letting bot_end be
        [1043, 858, 935, 213, 729, 196, 1080, 276, 543, 925, 1018, 823, 657, 1089, 725, 734, 1046, 94; int(1..18)]
letting bot_start be
        [813, 1174, 1120, 373, 817, 55, 862, 970, 91, 335, 155, 877, 1182, 758, 983, 420, 719, 947; int(1..18)]
letting bots be 18
letting buffer_col be 2
letting buffer_row be 2
letting corridor_size be 1
letting n_shelves_col be 4
letting n_shelves_row be 37
letting shelf_col_size be 2
letting shelf_row_size be 1
